NAME : A-n36-k5
COMMENT : (Augerat et al, Min no of trucks: 5, Optimal value: 799)
TYPE : CVRP
DIMENSION : 36
EDGE_WEIGHT_TYPE : EUC_2D 
CAPACITY : 100
NODE_COORD_SECTION 
 1 15 19
 2 1 49
 3 87 25
 4 69 65
 5 93 91
 6 33 31
 7 71 61
 8 29 9
 9 93 7
 10 55 47
 11 23 13
 12 19 47
 13 57 63
 14 5 95
 15 65 43
 16 69 1
 17 3 25
 18 19 91
 19 21 81
 20 67 91
 21 41 23
 22 19 75
 23 15 79
 24 79 47
 25 19 65
 26 27 49
 27 29 17
 28 25 65
 29 59 51
 30 27 95
 31 21 91
 32 61 83
 33 15 83
 34 31 87
 35 71 41
 36 91 21
DEMAND_SECTION 
1 0 
2 1 
3 14 
4 15 
5 11 
6 18 
7 2 
8 22 
9 7 
10 18 
11 23 
12 12 
13 21 
14 2 
15 14 
16 9 
17 10 
18 4 
19 19 
20 2 
21 20 
22 15 
23 11 
24 6 
25 13 
26 19 
27 13 
28 8 
29 15 
30 18 
31 11 
32 21 
33 12 
34 2 
35 23 
36 11 
DEPOT_SECTION 
 1  
 -1  
EOF 
